500
75 75
1 60 74
2 60 186
3 60 371
4 60 289
5 60 729
6 60 427
7 59 194
8 59 171
9 59 765
10 59 123
11 59 369
12 59 866
13 59 627
14 59 220
15 59 834
16 58 557
17 58 830
18 58 851
19 58 843
20 58 883
21 58 248
22 57 287
23 57 209
24 57 618
25 57 294
26 57 51
27 57 390
28 57 740
29 57 221
30 57 541
31 57 159
32 57 789
33 56 396
34 56 11
35 56 976
36 56 847
37 56 867
38 55 690
39 55 4
40 55 793
41 55 890
42 55 820
43 55 961
44 55 625
45 55 116
46 55 103
47 55 876
48 55 87
49 54 655
50 54 990
51 54 183
52 54 253
53 54 502
54 54 214
55 54 187
56 54 869
57 54 3
58 53 378
59 53 362
60 53 721
61 53 353
62 53 943
63 53 447
64 53 627
65 53 148
66 53 946
67 52 18
68 52 652
69 52 778
70 52 562
71 52 211
72 52 596
73 52 787
74 52 108
75 52 295
76 52 216
77 52 466
78 52 239
79 52 213
80 51 825
81 51 192
82 51 154
83 51 854
84 51 675
85 51 321
86 51 849
87 51 809
88 51 763
89 51 672
90 51 374
91 50 959
92 50 795
93 50 632
94 50 427
95 50 246
96 50 337
97 50 437
98 50 495
99 50 677
100 50 186
101 50 689
102 50 748
103 50 341
104 49 360
105 49 331
106 49 615
107 49 598
108 49 772
109 49 881
110 49 530
111 49 733
112 49 150
113 48 88
114 48 962
115 48 312
116 48 999
117 48 696
118 48 836
119 48 60
120 48 508
121 47 884
122 47 447
123 47 847
124 47 930
125 47 134
126 47 215
127 47 174
128 47 489
129 47 636
130 46 21
131 46 74
132 46 160
133 46 926
134 45 89
135 45 700
136 45 549
137 45 490
138 45 577
139 45 154
140 45 905
141 45 391
142 45 476
143 45 108
144 44 470
145 44 451
146 44 828
147 44 718
148 44 181
149 44 85
150 44 175
151 44 341
152 44 482
153 44 975
154 43 263
155 43 209
156 43 937
157 43 935
158 43 347
159 43 297
160 43 885
161 43 463
162 43 380
163 42 582
164 42 870
165 42 937
166 42 782
167 42 707
168 42 412
169 42 372
170 42 701
171 41 784
172 41 712
173 41 181
174 41 110
175 41 17
176 41 906
177 41 13
178 41 662
179 41 150
180 41 378
181 41 235
182 41 434
183 41 760
184 40 637
185 40 233
186 40 786
187 40 258
188 40 143
189 40 232
190 40 602
191 39 714
192 39 707
193 39 520
194 39 214
195 39 498
196 39 145
197 39 52
198 39 681
199 39 4
200 38 949
201 38 769
202 38 805
203 38 712
204 38 942
205 38 288
206 38 978
207 38 971
208 38 704
209 38 808
210 38 397
211 38 808
212 38 104
213 38 205
214 38 570
215 38 633
216 37 587
217 37 858
218 37 311
219 37 666
220 37 379
221 36 977
222 36 711
223 36 614
224 36 809
225 36 233
226 36 2
227 36 971
228 35 449
229 35 632
230 35 453
231 35 86
232 35 845
233 35 994
234 35 34
235 35 483
236 35 357
237 34 710
238 34 541
239 34 885
240 34 950
241 34 981
242 34 858
243 34 915
244 34 101
245 34 379
246 34 891
247 34 789
248 34 207
249 34 873
250 33 20
251 33 855
252 33 300
253 33 305
254 33 290
255 33 685
256 32 698
257 32 682
258 32 75
259 32 804
260 32 421
261 32 714
262 32 587
263 32 22
264 32 478
265 31 271
266 31 534
267 31 71
268 31 759
269 31 302
270 31 110
271 30 411
272 30 466
273 30 440
274 30 944
275 30 709
276 30 267
277 30 374
278 30 272
279 30 189
280 30 108
281 30 793
282 29 428
283 29 273
284 29 43
285 29 800
286 29 425
287 29 128
288 29 99
289 29 195
290 28 41
291 28 638
292 28 76
293 28 334
294 28 488
295 27 211
296 27 909
297 27 450
298 27 716
299 27 20
300 27 608
301 27 621
302 27 612
303 27 652
304 26 626
305 26 93
306 26 428
307 26 618
308 26 587
309 26 520
310 26 941
311 26 583
312 26 523
313 26 462
314 26 434
315 26 591
316 26 204
317 25 257
318 25 842
319 25 170
320 25 660
321 25 549
322 25 232
323 25 898
324 25 786
325 25 553
326 25 460
327 25 320
328 25 498
329 24 134
330 24 879
331 24 408
332 24 465
333 24 342
334 24 140
335 24 861
336 24 412
337 24 174
338 24 258
339 24 508
340 24 810
341 24 748
342 24 497
343 24 821
344 23 323
345 23 574
346 23 289
347 23 589
348 23 546
349 22 403
350 22 912
351 22 36
352 22 395
353 22 725
354 22 457
355 21 67
356 21 788
357 21 931
358 21 524
359 21 303
360 21 980
361 21 978
362 21 977
363 20 946
364 20 719
365 20 411
366 20 967
367 20 867
368 20 66
369 20 152
370 20 202
371 20 470
372 19 924
373 19 399
374 19 660
375 19 855
376 19 452
377 19 928
378 19 637
379 19 909
380 19 383
381 18 341
382 18 106
383 18 58
384 18 389
385 18 945
386 18 706
387 17 568
388 17 744
389 17 209
390 17 329
391 17 599
392 17 827
393 17 217
394 17 707
395 16 582
396 16 391
397 16 841
398 16 880
399 16 158
400 16 274
401 16 61
402 16 48
403 16 809
404 16 293
405 16 135
406 16 881
407 16 528
408 16 829
409 15 522
410 15 344
411 15 691
412 15 524
413 15 625
414 15 815
415 15 136
416 15 503
417 15 178
418 15 628
419 15 834
420 15 223
421 15 713
422 15 939
423 15 461
424 14 472
425 14 42
426 14 367
427 14 847
428 14 221
429 14 861
430 14 653
431 14 464
432 13 686
433 13 951
434 13 924
435 13 231
436 13 399
437 13 423
438 13 745
439 13 489
440 13 136
441 13 357
442 13 905
443 13 751
444 12 746
445 12 270
446 12 972
447 12 84
448 12 429
449 12 719
450 12 586
451 12 31
452 12 381
453 12 100
454 12 971
455 12 417
456 11 975
457 11 822
458 11 300
459 11 245
460 11 581
461 10 365
462 10 171
463 10 119
464 10 745
465 10 1000
466 10 470
467 10 196
468 10 148
469 10 939
470 10 332
471 10 351
472 10 0
473 9 257
474 9 178
475 9 837
476 9 709
477 9 772
478 9 192
479 9 188
480 9 537
481 9 395
482 9 87
483 9 912
484 9 951
485 9 669
486 9 804
487 8 79
488 8 325
489 8 919
490 8 437
491 8 859
492 8 601
493 8 121
494 7 157
495 7 855
496 7 633
497 7 643
498 7 436
499 7 269
500 7 445
